Test: fpga13_12_sat.cnf
Options: -print-activity -no-inverting-opt
WARNING: for repeatability, setting FPU to use double precision
============================[ Problem Statistics ]=============================
|                                                                             |
|  Number of symmetries:           32                                         |
|  Number of invertingSyms:         0                                         |
|  Number of variables:           234                                         |
|  Number of clauses:            1242                                         |
|  Parse time:                   0.00 s                                       |
|                                                                             |
============================[ Search Statistics ]==============================
| Conflicts |          ORIGINAL         |          LEARNT          | Progress |
|           |    Vars  Clauses Literals |    Limit  Clauses Lit/Cl |          |
===============================================================================
ActiveSyms: 32
ActiveSyms: 30
ActiveSyms: 28
ActiveSyms: 28
ActiveSyms: 28
ActiveSyms: 28
ActiveSyms: 28
ActiveSyms: 29
ActiveSyms: 27
ActiveSyms: 27
ActiveSyms: 27
ActiveSyms: 27
ActiveSyms: 27
ActiveSyms: 29
ActiveSyms: 27
ActiveSyms: 27
ActiveSyms: 27
ActiveSyms: 27
ActiveSyms: 27
ActiveSyms: 29
ActiveSyms: 27
ActiveSyms: 27
ActiveSyms: 27
ActiveSyms: 27
ActiveSyms: 27
ActiveSyms: 29
ActiveSyms: 27
ActiveSyms: 27
ActiveSyms: 27
ActiveSyms: 27
ActiveSyms: 27
ActiveSyms: 29
ActiveSyms: 27
ActiveSyms: 27
ActiveSyms: 27
ActiveSyms: 27
ActiveSyms: 27
ActiveSyms: 29
ActiveSyms: 28
ActiveSyms: 28
ActiveSyms: 28
ActiveSyms: 28
ActiveSyms: 28
ActiveSyms: 30
ActiveSyms: 28
ActiveSyms: 28
ActiveSyms: 28
ActiveSyms: 28
ActiveSyms: 28
ActiveSyms: 29
ActiveSyms: 27
ActiveSyms: 27
ActiveSyms: 27
ActiveSyms: 27
ActiveSyms: 27
ActiveSyms: 29
ActiveSyms: 27
ActiveSyms: 27
ActiveSyms: 27
ActiveSyms: 27
ActiveSyms: 27
ActiveSyms: 29
ActiveSyms: 27
ActiveSyms: 27
ActiveSyms: 27
ActiveSyms: 27
ActiveSyms: 27
ActiveSyms: 29
ActiveSyms: 27
ActiveSyms: 25
ActiveSyms: 25
ActiveSyms: 26
ActiveSyms: 29
ActiveSyms: 27
ActiveSyms: 26
ActiveSyms: 26
ActiveSyms: 26
ActiveSyms: 24
ActiveSyms: 24
ActiveSyms: 23
ActiveSyms: 24
ActiveSyms: 24
ActiveSyms: 26
ActiveSyms: 26
ActiveSyms: 24
ActiveSyms: 26
ActiveSyms: 27
ActiveSyms: 30
ActiveSyms: 27
ActiveSyms: 25
ActiveSyms: 24
ActiveSyms: 23
ActiveSyms: 23
ActiveSyms: 22
ActiveSyms: 23
ActiveSyms: 23
ActiveSyms: 23
ActiveSyms: 23
ActiveSyms: 23
ActiveSyms: 22
ActiveSyms: 23
ActiveSyms: 24
ActiveSyms: 25
ActiveSyms: 24
ActiveSyms: 25
ActiveSyms: 26
ActiveSyms: 23
ActiveSyms: 28
ActiveSyms: 25
ActiveSyms: 29
ActiveSyms: 28
ActiveSyms: 26
ActiveSyms: 25
ActiveSyms: 24
ActiveSyms: 23
ActiveSyms: 23
ActiveSyms: 24
ActiveSyms: 22
ActiveSyms: 21
ActiveSyms: 21
ActiveSyms: 22
ActiveSyms: 23
ActiveSyms: 23
ActiveSyms: 22
ActiveSyms: 21
ActiveSyms: 25
ActiveSyms: 23
ActiveSyms: 24
ActiveSyms: 23
ActiveSyms: 23
ActiveSyms: 25
ActiveSyms: 23
ActiveSyms: 25
ActiveSyms: 24
ActiveSyms: 23
ActiveSyms: 22
ActiveSyms: 22
ActiveSyms: 21
ActiveSyms: 22
ActiveSyms: 23
ActiveSyms: 22
ActiveSyms: 20
ActiveSyms: 20
ActiveSyms: 21
ActiveSyms: 22
ActiveSyms: 20
ActiveSyms: 22
ActiveSyms: 24
ActiveSyms: 24
ActiveSyms: 23
ActiveSyms: 23
ActiveSyms: 24
ActiveSyms: 23
ActiveSyms: 21
ActiveSyms: 22
ActiveSyms: 21
ActiveSyms: 21
ActiveSyms: 22
ActiveSyms: 23
ActiveSyms: 25
ActiveSyms: 23
ActiveSyms: 20
ActiveSyms: 20
ActiveSyms: 20
ActiveSyms: 21
ActiveSyms: 20
ActiveSyms: 20
ActiveSyms: 23
ActiveSyms: 26
ActiveSyms: 24
ActiveSyms: 25
ActiveSyms: 26
ActiveSyms: 30
ActiveSyms: 28
ActiveSyms: 26
ActiveSyms: 25
ActiveSyms: 24
ActiveSyms: 24
ActiveSyms: 22
ActiveSyms: 22
ActiveSyms: 21
ActiveSyms: 21
ActiveSyms: 20
ActiveSyms: 21
ActiveSyms: 22
ActiveSyms: 22
ActiveSyms: 22
ActiveSyms: 24
ActiveSyms: 22
ActiveSyms: 23
ActiveSyms: 21
ActiveSyms: 22
ActiveSyms: 21
ActiveSyms: 23
ActiveSyms: 22
ActiveSyms: 20
ActiveSyms: 22
ActiveSyms: 24
ActiveSyms: 22
ActiveSyms: 20
ActiveSyms: 20
ActiveSyms: 19
ActiveSyms: 20
ActiveSyms: 20
ActiveSyms: 21
ActiveSyms: 20
ActiveSyms: 20
ActiveSyms: 20
ActiveSyms: 21
ActiveSyms: 21
ActiveSyms: 21
ActiveSyms: 19
ActiveSyms: 21
ActiveSyms: 22
ActiveSyms: 21
ActiveSyms: 20
ActiveSyms: 20
ActiveSyms: 19
ActiveSyms: 20
ActiveSyms: 20
ActiveSyms: 20
ActiveSyms: 20
ActiveSyms: 21
ActiveSyms: 21
ActiveSyms: 22
ActiveSyms: 23
ActiveSyms: 22
ActiveSyms: 22
ActiveSyms: 20
ActiveSyms: 19
ActiveSyms: 18
ActiveSyms: 19
ActiveSyms: 19
ActiveSyms: 21
ActiveSyms: 21
ActiveSyms: 20
ActiveSyms: 20
ActiveSyms: 20
ActiveSyms: 19
ActiveSyms: 20
ActiveSyms: 20
ActiveSyms: 21
ActiveSyms: 19
ActiveSyms: 19
ActiveSyms: 18
ActiveSyms: 19
ActiveSyms: 19
ActiveSyms: 20
ActiveSyms: 19
ActiveSyms: 20
ActiveSyms: 22
ActiveSyms: 23
ActiveSyms: 24
ActiveSyms: 24
ActiveSyms: 23
ActiveSyms: 21
ActiveSyms: 20
ActiveSyms: 24
ActiveSyms: 26
ActiveSyms: 26
ActiveSyms: 21
ActiveSyms: 22
ActiveSyms: 20
ActiveSyms: 20
ActiveSyms: 22
ActiveSyms: 20
ActiveSyms: 20
ActiveSyms: 23
ActiveSyms: 24
ActiveSyms: 23
ActiveSyms: 21
ActiveSyms: 22
ActiveSyms: 22
ActiveSyms: 24
ActiveSyms: 24
ActiveSyms: 25
ActiveSyms: 26
ActiveSyms: 29
ActiveSyms: 27
ActiveSyms: 25
ActiveSyms: 24
ActiveSyms: 24
ActiveSyms: 22
ActiveSyms: 22
ActiveSyms: 21
ActiveSyms: 22
ActiveSyms: 22
ActiveSyms: 20
ActiveSyms: 20
ActiveSyms: 21
ActiveSyms: 20
ActiveSyms: 19
ActiveSyms: 19
ActiveSyms: 18
ActiveSyms: 20
ActiveSyms: 20
|       100 |     234     1242     3396 |      455      253     46 |  0.002 % |
ActiveSyms: 20
ActiveSyms: 22
ActiveSyms: 20
ActiveSyms: 32
ActiveSyms: 28
ActiveSyms: 28
ActiveSyms: 28
ActiveSyms: 28
ActiveSyms: 29
ActiveSyms: 27
ActiveSyms: 27
ActiveSyms: 25
ActiveSyms: 27
ActiveSyms: 29
ActiveSyms: 26
ActiveSyms: 26
ActiveSyms: 26
ActiveSyms: 26
ActiveSyms: 27
ActiveSyms: 25
ActiveSyms: 25
ActiveSyms: 25
ActiveSyms: 25
ActiveSyms: 27
ActiveSyms: 25
ActiveSyms: 25
ActiveSyms: 25
ActiveSyms: 25
ActiveSyms: 27
ActiveSyms: 24
ActiveSyms: 25
ActiveSyms: 24
ActiveSyms: 23
ActiveSyms: 24
ActiveSyms: 24
ActiveSyms: 24
ActiveSyms: 24
ActiveSyms: 25
ActiveSyms: 23
ActiveSyms: 22
ActiveSyms: 22
ActiveSyms: 22
ActiveSyms: 22
ActiveSyms: 24
ActiveSyms: 22
ActiveSyms: 21
ActiveSyms: 21
ActiveSyms: 21
ActiveSyms: 21
ActiveSyms: 23
ActiveSyms: 21
ActiveSyms: 22
ActiveSyms: 21
ActiveSyms: 21
ActiveSyms: 22
ActiveSyms: 23
ActiveSyms: 21
ActiveSyms: 22
ActiveSyms: 21
ActiveSyms: 21
ActiveSyms: 20
ActiveSyms: 20
ActiveSyms: 20
ActiveSyms: 20
ActiveSyms: 22
ActiveSyms: 21
ActiveSyms: 20
ActiveSyms: 20
ActiveSyms: 18
ActiveSyms: 20
ActiveSyms: 21
ActiveSyms: 21
ActiveSyms: 22
ActiveSyms: 21
ActiveSyms: 22
ActiveSyms: 21
ActiveSyms: 23
ActiveSyms: 22
ActiveSyms: 20
ActiveSyms: 19
ActiveSyms: 19
ActiveSyms: 19
ActiveSyms: 18
ActiveSyms: 19
ActiveSyms: 20
ActiveSyms: 20
ActiveSyms: 20
ActiveSyms: 19
ActiveSyms: 18
ActiveSyms: 19
ActiveSyms: 18
ActiveSyms: 17
ActiveSyms: 18
ActiveSyms: 19
ActiveSyms: 20
ActiveSyms: 19
ActiveSyms: 18
ActiveSyms: 18
ActiveSyms: 17
ActiveSyms: 18
ActiveSyms: 17
ActiveSyms: 17
ActiveSyms: 18
ActiveSyms: 18
ActiveSyms: 17
ActiveSyms: 19
ActiveSyms: 19
ActiveSyms: 18
ActiveSyms: 20
ActiveSyms: 18
ActiveSyms: 20
ActiveSyms: 19
ActiveSyms: 19
ActiveSyms: 19
ActiveSyms: 19
ActiveSyms: 18
ActiveSyms: 18
ActiveSyms: 19
ActiveSyms: 20
ActiveSyms: 19
ActiveSyms: 20
ActiveSyms: 20
ActiveSyms: 21
ActiveSyms: 21
ActiveSyms: 20
ActiveSyms: 21
ActiveSyms: 19
ActiveSyms: 19
ActiveSyms: 19
ActiveSyms: 19
ActiveSyms: 19
ActiveSyms: 18
ActiveSyms: 18
ActiveSyms: 18
ActiveSyms: 19
ActiveSyms: 19
ActiveSyms: 18
ActiveSyms: 19
ActiveSyms: 19
ActiveSyms: 19
ActiveSyms: 19
ActiveSyms: 19
ActiveSyms: 19
ActiveSyms: 19
ActiveSyms: 18
ActiveSyms: 20
ActiveSyms: 18
ActiveSyms: 20
ActiveSyms: 21
ActiveSyms: 21
ActiveSyms: 21
ActiveSyms: 23
ActiveSyms: 22
ActiveSyms: 21
ActiveSyms: 20
ActiveSyms: 18
ActiveSyms: 19
ActiveSyms: 18
ActiveSyms: 18
ActiveSyms: 19
ActiveSyms: 19
ActiveSyms: 19
ActiveSyms: 19
ActiveSyms: 19
ActiveSyms: 19
ActiveSyms: 17
ActiveSyms: 19
ActiveSyms: 19
ActiveSyms: 19
ActiveSyms: 17
ActiveSyms: 17
ActiveSyms: 17
ActiveSyms: 15
ActiveSyms: 13
ActiveSyms: 13
ActiveSyms: 15
ActiveSyms: 13
ActiveSyms: 11
ActiveSyms: 11
ActiveSyms: 11
ActiveSyms: 12
ActiveSyms: 14
ActiveSyms: 12
ActiveSyms: 11
ActiveSyms: 13
ActiveSyms: 12
ActiveSyms: 10
ActiveSyms: 8
ActiveSyms: 10
ActiveSyms: 10
ActiveSyms: 10
ActiveSyms: 11
ActiveSyms: 10
ActiveSyms: 9
ActiveSyms: 9
ActiveSyms: 9
ActiveSyms: 8
ActiveSyms: 8
ActiveSyms: 7
ActiveSyms: 7
ActiveSyms: 7
ActiveSyms: 5
ActiveSyms: 4
ActiveSyms: 3
ActiveSyms: 3
ActiveSyms: 2
ActiveSyms: 2
ActiveSyms: 0
ActiveSyms: 0
ActiveSyms: 0
ActiveSyms: 0
ActiveSyms: 0
ActiveSyms: 0
ActiveSyms: 0
ActiveSyms: 0
===============================================================================
restarts              : 2
conflicts             : 145            (18125 /sec)
symconflicts          : 36             (4500 /sec)
decisions             : 365            (0.00 % random) (45625 /sec)
propagations          : 4039           (504875 /sec)
sympropagations       : 231            (28875 /sec)
conflict literals     : 6716           (1.78 % deleted)
literals     : 6716           (1.78 % deleted)

HEURISTIC USAGES
random                : 0           
activity w/ lookahead : 0           
activity no lookahead : 0           
original sp           : 364         
sym count             : 0           

Memory used           : 5.00 MB
CPU time              : 0.008 s

SATISFIABLE
